clingo version 5.4.0
Reading from merger/Adrian/merge.lp ...
Solving...
UNSATISFIABLE

Models       : 0
Calls        : 1
Time         : 0.963s (Solving: 0.34s 1st Model: 0.00s Unsat: 0.34s)
CPU Time     : 0.885s
